mixintcount/benchmarks/random_v2l/7_7_31.in
28 9
#	x1	x2	x3	x4	x5	x6	x7;		0 = Real; 1 = Integer
	1	1	1	1	1	1	1
1	0	-5	5	3	0	6	-6	30
1	-6	3	-6	-10	10	-7	3	2
1	-3	0	7	-2	3	-5	-5	-24
1	-8	4	10	9	-10	0	5	12
1	5	0	-9	-8	-5	-4	5	-20
1	7	7	-5	7	10	9	-7	-24
1	-2	9	3	9	-7	6	10	-5
1	-1	7	10	0	-6	5	9	-28
1	-8	8	10	-5	-9	4	1	31
1	-1	6	3	-2	2	6	3	30
1	2	-6	7	5	10	4	8	-13
1	1	6	5	3	0	3	0	18
1	0	0	5	2	-9	-5	-2	0
1	10	-10	9	1	4	-1	-1	0
1	1	0	0	0	0	0	0	31
1	-1	0	0	0	0	0	0	31
1	0	1	0	0	0	0	0	31
1	0	-1	0	0	0	0	0	31
1	0	0	1	0	0	0	0	31
1	0	0	-1	0	0	0	0	31
1	0	0	0	1	0	0	0	31
1	0	0	0	-1	0	0	0	31
1	0	0	0	0	1	0	0	31
1	0	0	0	0	-1	0	0	31
1	0	0	0	0	0	1	0	31
1	0	0	0	0	0	-1	0	31
1	0	0	0	0	0	0	1	31
1	0	0	0	0	0	0	-1	31
